157	32	4	143	
10	10	10	10

0	0	0	0	0	0	1	1
1	1	1	0	1	9	1	2
2	3	0	1	4	4	1	3
3	2	4	0	2	2	1	4
4	3	5	5	0	10	1	5
5	5	0	1	3	9	1	6
6	8	4	0	3	9	1	7
7	5	3	3	0	7	1	8
8	6	3	0	2	3	1	9
9	5	5	5	0	7	1	10
10	6	0	6	4	5	1	11
11	0	2	4	5	3	1	12
12	0	3	6	4	8	1	13
13	0	6	6	3	1	1	14
14	4	5	5	0	10	1	15
15	5	0	5	3	3	1	16
16	0	5	3	4	1	1	17
17	1	5	0	6	2	1	18
18	3	9	0	4	7	1	19
19	2	0	2	4	2	1	20
20	6	0	3	4	1	1	21
21	0	6	3	7	1	1	22
22	0	6	5	4	1	3	30	27	23
23	0	4	3	5	1	1	24
24	0	2	3	6	9	1	25
25	3	4	0	5	10	2	29	26
26	6	4	4	0	8	1	28
27	4	0	2	4	3	1	28
28	3	3	3	0	6	1	31
29	5	1	0	5	10	1	31
30	2	2	10	0	5	1	31
31	0	0	0	0	0	0
